Version identifier: 22.1.0.0 | 2022-03-09 | 1a383f8ce
CPXPARAM_Threads                                 1
CPXPARAM_MIP_Strategy_VariableSelect             3
CPXPARAM_TimeLimit                               599.68400687200005
1 of 1 MIP starts provided solutions.
MIP start 'm1' defined initial solution with objective 92.0000.
Tried aggregator 1 time.
MIP Presolve eliminated 10 rows and 0 columns.
MIP Presolve modified 5 coefficients.
Reduced MIP has 715 rows, 2500 columns, and 33327 nonzeros.
Reduced MIP has 2500 binaries, 0 generals, 0 SOSs, and 0 indicators.
Presolve time = 0.02 sec. (20.93 ticks)
Probing time = 0.00 sec. (3.90 ticks)
Tried aggregator 1 time.
Detecting symmetries...
Reduced MIP has 715 rows, 2500 columns, and 33327 nonzeros.
Reduced MIP has 2500 binaries, 0 generals, 0 SOSs, and 0 indicators.
Presolve time = 0.03 sec. (21.92 ticks)
Probing time = 0.00 sec. (3.90 ticks)
Clique table members: 398.
MIP emphasis: balance optimality and feasibility.
MIP search method: dynamic search.
Parallel mode: none, using 1 thread.
Root relaxation solution time = 0.32 sec. (360.59 ticks)

        Nodes                                         Cuts/
   Node  Left     Objective  IInf  Best Integer    Best Bound    ItCnt     Gap

*     0+    0                           92.0000     2500.0000              --- 
      0     0      100.0000   468       92.0000      100.0000     2388    8.70%
      0     0      100.0000   369       92.0000      Cuts: 12     3901    8.70%
      0     0      100.0000   457       92.0000      Cuts: 14     5919    8.70%
      0     0      100.0000   246       92.0000       Cuts: 6     7478    8.70%
      0     0      100.0000   408       92.0000   ZeroHalf: 4     9059    8.70%
Detecting symmetries...
      0     2      100.0000   166       92.0000      100.0000     9059    8.70%
Elapsed time = 12.86 sec. (13694.02 ticks, tree = 0.01 MB, solutions = 1)
      1     3       99.9194   413       92.0000      100.0000    12856    8.70%
      2     4      100.0000   231       92.0000      100.0000    14784    8.70%
      4     6      100.0000   392       92.0000      100.0000    17926    8.70%
      6     8      100.0000   299       92.0000      100.0000    21446    8.70%
      7     9      100.0000   282       92.0000      100.0000    24287    8.70%
      8    10      100.0000   277       92.0000      100.0000    27030    8.70%
      9    11      100.0000   312       92.0000      100.0000    29439    8.70%
     10    12       99.8609   418       92.0000      100.0000    37029    8.70%
     11    13      100.0000   285       92.0000      100.0000    39602    8.70%
     13    15       99.8438   412       92.0000      100.0000    44519    8.70%
Elapsed time = 19.73 sec. (21195.62 ticks, tree = 0.03 MB, solutions = 1)
     15    17      100.0000   217       92.0000      100.0000    48732    8.70%
     18    20       99.8000   447       92.0000      100.0000    58318    8.70%
     21    23       99.8373   384       92.0000      100.0000    64365    8.70%
     23    25       99.8272   446       92.0000      100.0000    72057    8.70%
     26    28       99.8454   399       92.0000      100.0000    85389    8.70%
     28    30      100.0000   230       92.0000      100.0000    92000    8.70%
     30    32       99.9226   416       92.0000      100.0000    95939    8.70%
     32    34      100.0000   242       92.0000      100.0000   100525    8.70%
     34    36      100.0000   245       92.0000      100.0000   106722    8.70%
     36    38      100.0000   243       92.0000      100.0000   112396    8.70%
Elapsed time = 34.86 sec. (37560.10 ticks, tree = 0.07 MB, solutions = 1)
     38    40       99.9753   386       92.0000      100.0000   119381    8.70%
     41    43      100.0000   208       92.0000      100.0000   123680    8.70%
     43    45      100.0000   288       92.0000      100.0000   131454    8.70%
     45    47       99.7837   401       92.0000      100.0000   139739    8.70%
     48    50       99.9573   403       92.0000      100.0000   146740    8.70%
     51    53      100.0000   289       92.0000      100.0000   150334    8.70%
     54    56       99.7903   298       92.0000      100.0000   156245    8.70%
     57    59       99.9591   315       92.0000      100.0000   160461    8.70%
     61    63       98.9714   362       92.0000      100.0000   164956    8.70%
     69    71       99.9591   305       92.0000      100.0000   165220    8.70%
Elapsed time = 46.21 sec. (49851.74 ticks, tree = 0.13 MB, solutions = 1)
     70    72       99.9591   363       92.0000      100.0000   166964    8.70%
     73    74       98.9714   353       92.0000      100.0000   171687    8.70%
     77    78       99.9591   359       92.0000      100.0000   175988    8.70%
     80    81       99.9591   337       92.0000      100.0000   176057    8.70%
     84    85       99.9591   312       92.0000      100.0000   180019    8.70%
     89    90       99.9591   344       92.0000      100.0000   183744    8.70%
     93    94       99.0000   363       92.0000      100.0000   189178    8.70%
     98    99       99.9591   328       92.0000      100.0000   192033    8.70%
    100   101       98.9714   361       92.0000      100.0000   194470    8.70%
    105   106       99.9591   321       92.0000      100.0000   197075    8.70%
Elapsed time = 57.74 sec. (61940.86 ticks, tree = 0.17 MB, solutions = 1)
    109   110       99.9591   325       92.0000      100.0000   200616    8.70%
    112   113       99.9591   369       92.0000      100.0000   205639    8.70%
    114   115       99.9591   359       92.0000      100.0000   211626    8.70%
    118   119       98.9714   338       92.0000      100.0000   215956    8.70%
    120   121       99.9556   373       92.0000      100.0000   217924    8.70%
    124   125       99.9514   372       92.0000      100.0000   221969    8.70%
    128   129       98.9714   370       92.0000      100.0000   226527    8.70%
    133   134       99.9463   307       92.0000      100.0000   230384    8.70%
    137   138       99.0000   321       92.0000      100.0000   235568    8.70%
    142   143       99.0000   310       92.0000      100.0000   239094    8.70%
Elapsed time = 67.96 sec. (72806.42 ticks, tree = 0.22 MB, solutions = 1)
    145   146       99.9463   322       92.0000      100.0000   244237    8.70%
    148   149       99.9463   314       92.0000      100.0000   248334    8.70%
    154   155       99.9463   321       92.0000      100.0000   251937    8.70%
    157   158       99.9463   349       92.0000      100.0000   256917    8.70%
    161   162       99.9463   294       92.0000      100.0000   260584    8.70%
    164   165       99.9463   349       92.0000      100.0000   265555    8.70%
    167   168       99.0000   383       92.0000      100.0000   270675    8.70%
    171   172       99.0000   304       92.0000      100.0000   275765    8.70%
    176   177       99.9463   314       92.0000      100.0000   279019    8.70%
    180   181       98.9714   360       92.0000      100.0000   283443    8.70%
Elapsed time = 78.04 sec. (83611.19 ticks, tree = 0.26 MB, solutions = 1)
    185   186       98.9714   340       92.0000      100.0000   287393    8.70%
    190   191       98.9714   348       92.0000      100.0000   291698    8.70%
    195   196       99.0000   286       92.0000      100.0000   295208    8.70%
    199   200       99.9401   325       92.0000      100.0000   299400    8.70%
    200   201       99.9401   358       92.0000      100.0000   300949    8.70%
    204   205       99.7534   343       92.0000      100.0000   306218    8.70%
    208   209       99.9401   341       92.0000      100.0000   309860    8.70%
    212   213       99.0000   332       92.0000      100.0000   314814    8.70%
    215   216       99.6129   385       92.0000      100.0000   318993    8.70%
    219   220       99.9401   356       92.0000      100.0000   322938    8.70%
Elapsed time = 88.78 sec. (94974.45 ticks, tree = 0.30 MB, solutions = 1)
    222   223       99.0000   310       92.0000      100.0000   327921    8.70%
    226   227       99.0000   301       92.0000      100.0000   332880    8.70%
    232   233       99.9401   366       92.0000      100.0000   336916    8.70%
    235   236       99.0000   371       92.0000      100.0000   341896    8.70%
    238   239       99.0000   293       92.0000      100.0000   346568    8.70%
    240   241       99.9401   309       92.0000      100.0000   349516    8.70%
    243   244       99.9401   363       92.0000      100.0000   354024    8.70%
    246   247       99.0000   296       92.0000      100.0000   358475    8.70%
    249   250       99.9401   379       92.0000      100.0000   362732    8.70%
    252   253       99.0000   363       92.0000      100.0000   367823    8.70%
Elapsed time = 99.19 sec. (106068.15 ticks, tree = 0.34 MB, solutions = 1)
    256   257       99.9401   326       92.0000      100.0000   371402    8.70%
    260   261       98.9714   365       92.0000      100.0000   377013    8.70%
    264   265       99.9401   341       92.0000      100.0000   381155    8.70%
    268   269       99.9401   333       92.0000      100.0000   384520    8.70%
    272   273       99.9401   323       92.0000      100.0000   388590    8.70%
    275   276       99.9401   383       92.0000      100.0000   393118    8.70%
    280   280       99.9401   344       92.0000      100.0000   396574    8.70%
    284   284       98.9714   347       92.0000      100.0000   401132    8.70%
    288   288       99.9401   307       92.0000      100.0000   405512    8.70%
    291   291       99.9322   390       92.0000      100.0000   411696    8.70%
Elapsed time = 109.51 sec. (117025.35 ticks, tree = 0.39 MB, solutions = 1)
    295   295       99.0000   356       92.0000      100.0000   417068    8.70%
    298   298       99.9322   386       92.0000      100.0000   422256    8.70%
    300   300       99.9322   366       92.0000      100.0000   423417    8.70%
    304   303       99.9322   392       92.0000      100.0000   428857    8.70%
    309   308       99.9322   332       92.0000      100.0000   431937    8.70%
    312   311       99.7009   280       92.0000      100.0000   437719    8.70%
    315   314       99.8643   344       92.0000      100.0000   443018    8.70%
    319   318       99.0000   340       92.0000      100.0000   446840    8.70%
    320   319       99.8643   335       92.0000      100.0000   448469    8.70%
    333   332       99.0000   332       92.0000      100.0000   466117    8.70%
Elapsed time = 123.56 sec. (131618.88 ticks, tree = 0.44 MB, solutions = 1)
    345   344       99.0000   293       92.0000      100.0000   477210    8.70%
    360   359       99.8437   395       92.0000      100.0000   491422    8.70%
    372   371       99.6000   350       92.0000      100.0000   508612    8.70%
    387   386       99.7761   356       92.0000      100.0000   523387    8.70%
    399   398       99.7756   396       92.0000      100.0000   541591    8.70%
    413   412       99.0000   284       92.0000      100.0000   556469    8.70%
    430   427       99.7756   380       92.0000      100.0000   570793    8.70%
    442   439       99.7756   396       92.0000      100.0000   589341    8.70%
    457   454       99.4188   339       92.0000      100.0000   606662    8.70%
    472   469       99.7093   389       92.0000      100.0000   623668    8.70%
Elapsed time = 161.08 sec. (171033.97 ticks, tree = 0.59 MB, solutions = 1)
    480   477       99.7093   317       92.0000      100.0000   633337    8.70%
    493   490       99.4253   351       92.0000      100.0000   651256    8.70%
    507   504       99.4253   333       92.0000      100.0000   668999    8.70%
    510   507       99.8650   416       92.0000      100.0000   677120    8.70%
    512   509      100.0000   230       92.0000      100.0000   682946    8.70%

Performing restart 1

Repeating presolve.
Tried aggregator 1 time.
Reduced MIP has 715 rows, 2500 columns, and 33327 nonzeros.
Reduced MIP has 2500 binaries, 0 generals, 0 SOSs, and 0 indicators.
Presolve time = 0.02 sec. (19.23 ticks)
Tried aggregator 1 time.
Reduced MIP has 715 rows, 2500 columns, and 33327 nonzeros.
Reduced MIP has 2500 binaries, 0 generals, 0 SOSs, and 0 indicators.
Presolve time = 0.03 sec. (22.41 ticks)
Represolve time = 0.18 sec. (143.85 ticks)
    514     0      100.0000   316       92.0000       Cuts: 9   692847    8.70%
    514     0      100.0000   328       92.0000      Cuts: 24   694887    8.70%
    514     0      100.0000   381       92.0000      Cuts: 14   697951    8.70%
    514     0      100.0000   416       92.0000      Cuts: 37   701071    8.70%
    514     0      100.0000   351       92.0000       Cuts: 8   701642    8.70%
    514     0      100.0000   458       92.0000      Cuts: 31   706829    8.70%
    514     2      100.0000   282       92.0000      100.0000   706829    8.70%
    519     7       99.9091   452       92.0000      100.0000   727200    8.70%
    525    13       99.8889   450       92.0000      100.0000   752314    8.70%
    531    19       99.8750   414       92.0000      100.0000   765931    8.70%
    538    26      100.0000   445       92.0000      100.0000   780498    8.70%
Elapsed time = 228.29 sec. (242785.12 ticks, tree = 0.12 MB, solutions = 1)
    544    32       99.9583   457       92.0000      100.0000   793918    8.70%
    552    40       99.9811   455       92.0000      100.0000   816876    8.70%
    558    46      100.0000   452       92.0000      100.0000   834265    8.70%
    564    52      100.0000   336       92.0000      100.0000   848392    8.70%
    572    60      100.0000   320       92.0000      100.0000   861396    8.70%
    575    63      100.0000   302       92.0000      100.0000   866001    8.70%
    584    72      100.0000   323       92.0000      100.0000   880119    8.70%
    594    82       99.8889   437       92.0000      100.0000   894745    8.70%
    603    91       99.6897   407       92.0000      100.0000   909916    8.70%
    611    99       99.7000   384       92.0000      100.0000   927420    8.70%
Elapsed time = 267.49 sec. (286542.76 ticks, tree = 0.48 MB, solutions = 1)
    614   102       99.8091   418       92.0000      100.0000   937802    8.70%
    620   108      100.0000   329       92.0000      100.0000   956388    8.70%
    625   113      100.0000   286       92.0000      100.0000   977055    8.70%
    631   119      100.0000   314       92.0000      100.0000   997299    8.70%
    637   125      100.0000   307       92.0000      100.0000  1015793    8.70%
    646   134       99.6538   419       92.0000      100.0000  1030497    8.70%
    654   142      100.0000   308       92.0000      100.0000  1038512    8.70%
    665   153      100.0000   297       92.0000      100.0000  1049610    8.70%
    674   162       99.7813   363       92.0000      100.0000  1057146    8.70%
    689   177       97.4000   411       92.0000      100.0000  1066027    8.70%
Elapsed time = 318.75 sec. (341522.16 ticks, tree = 0.90 MB, solutions = 1)
    708   196       99.9643   409       92.0000      100.0000  1071988    8.70%
    727   215       97.4000   400       92.0000      100.0000  1077619    8.70%
    741   229       99.0000   413       92.0000      100.0000  1081668    8.70%
    759   247       99.6100   371       92.0000      100.0000  1087798    8.70%
    774   262       99.6100   366       92.0000      100.0000  1093293    8.70%
    791   279       99.2273   390       92.0000      100.0000  1100365    8.70%
    809   297       99.5998   412       92.0000      100.0000  1107301    8.70%
    828   316       99.5324   377       92.0000      100.0000  1112166    8.70%
    848   336       98.8835   391       92.0000      100.0000  1117904    8.70%
    862   345    infeasible             92.0000      100.0000  1122864    8.70%
Elapsed time = 353.38 sec. (381423.76 ticks, tree = 2.07 MB, solutions = 1)
    881   361       99.3158   331       92.0000      100.0000  1128251    8.70%
    901   380       98.3135   315       92.0000      100.0000  1133762    8.70%
    924   402       99.4143   342       92.0000      100.0000  1139355    8.70%
    948   423    infeasible             92.0000      100.0000  1149058    8.70%
    968   443       98.4533   332       92.0000      100.0000  1156335    8.70%
    983   452       99.0000   296       92.0000      100.0000  1166841    8.70%
    997   466       99.7500   286       92.0000      100.0000  1176417    8.70%
   1015   484       99.8750   302       92.0000      100.0000  1183695    8.70%
   1031   500       99.0000   260       92.0000      100.0000  1193347    8.70%
   1064   523       99.2059   422       92.0000      100.0000  1207400    8.70%
Elapsed time = 388.89 sec. (421275.51 ticks, tree = 3.34 MB, solutions = 1)
   1080   539       99.6250   312       92.0000      100.0000  1212643    8.70%
   1099   556       99.3578   303       92.0000      100.0000  1221871    8.70%
   1116   572       99.8800   389       92.0000      100.0000  1231073    8.70%
   1135   591       97.4000   405       92.0000      100.0000  1237533    8.70%
   1152   608       99.0000   318       92.0000      100.0000  1244300    8.70%
   1171   627       98.9615   407       92.0000      100.0000  1250669    8.70%
   1187   643       99.8194   357       92.0000      100.0000  1257671    8.70%
   1205   661       99.8396   430       92.0000      100.0000  1263848    8.70%
   1223   679       97.4000   323       92.0000      100.0000  1272302    8.70%
   1242   698       99.2789   369       92.0000      100.0000  1280577    8.70%
Elapsed time = 423.40 sec. (461086.53 ticks, tree = 4.58 MB, solutions = 1)
   1263   719       99.2956   323       92.0000      100.0000  1289274    8.70%
   1280   736       98.8571   323       92.0000      100.0000  1296532    8.70%
   1299   755       97.4000   275       92.0000      100.0000  1305939    8.70%
   1317   770       99.6667   403       92.0000      100.0000  1316379    8.70%
   1336   789       99.6667   393       92.0000      100.0000  1322276    8.70%
   1353   806       98.3333   233       92.0000      100.0000  1331914    8.70%
   1373   821       97.4000   195       92.0000      100.0000  1342188    8.70%
   1401   844       97.4000   205       92.0000      100.0000  1351566    8.70%
   1432   866       98.9615   421       92.0000      100.0000  1359371    8.70%
   1447   881       99.7000   427       92.0000      100.0000  1365830    8.70%
Elapsed time = 458.72 sec. (500477.31 ticks, tree = 5.89 MB, solutions = 1)
   1464   898       99.6471   365       92.0000      100.0000  1372522    8.70%
   1479   913       99.6471   341       92.0000      100.0000  1379429    8.70%
   1496   930       99.6454   387       92.0000      100.0000  1387646    8.70%
   1517   951       97.4000   268       92.0000      100.0000  1395336    8.70%
   1547   979       97.0000   202       92.0000      100.0000  1402285    8.70%
   1571   998       99.7097   439       92.0000      100.0000  1408317    8.70%
   1594  1021       97.4000   369       92.0000      100.0000  1411304    8.70%
   1614  1041       97.4000   290       92.0000      100.0000  1414758    8.70%
   1653  1077       97.2458   206       92.0000      100.0000  1423314    8.70%
   1708  1131       96.8173   181       92.0000      100.0000  1430690    8.70%
Elapsed time = 498.53 sec. (543141.18 ticks, tree = 7.73 MB, solutions = 1)
   1759  1169       99.6250   362       92.0000      100.0000  1437631    8.70%
   1777  1187       99.6250   347       92.0000      100.0000  1444039    8.70%
   1794  1202       98.0000   252       92.0000      100.0000  1452318    8.70%
   1822  1224       98.0000   239       92.0000      100.0000  1461306    8.70%
   1856  1237       99.6250   377       92.0000      100.0000  1472885    8.70%
   1874  1255       99.6250   351       92.0000      100.0000  1477926    8.70%
   1896  1277       99.6154   347       92.0000      100.0000  1482842    8.70%
   1925  1303       98.6190   287       92.0000      100.0000  1486524    8.70%
   1965  1341       98.6190   257       92.0000      100.0000  1489079    8.70%
   2003  1378       98.6190   259       92.0000      100.0000  1493465    8.70%
Elapsed time = 535.78 sec. (583698.75 ticks, tree = 9.50 MB, solutions = 1)
   2034  1400       99.8750   374       92.0000      100.0000  1500338    8.70%
   2050  1416       99.6471   368       92.0000      100.0000  1507886    8.70%
   2066  1432       99.8750   394       92.0000      100.0000  1515014    8.70%
   2081  1447       99.7857   354       92.0000      100.0000  1524342    8.70%
   2100  1466       99.7331   380       92.0000      100.0000  1531982    8.70%
Starting limited solution polishing.
   2120  1486       97.4000   327       92.0000      100.0000  1539265    8.70%
   2142  1507       98.9615   306       92.0000      100.0000  1547118    8.70%
   2164  1529       98.9008   306       92.0000      100.0000  1556414    8.70%
   2194  1551       96.6000   236       92.0000      100.0000  1565116    8.70%
   2232  1567       99.7188   426       92.0000      100.0000  1573603    8.70%
Elapsed time = 571.20 sec. (623295.52 ticks, tree = 10.86 MB, solutions = 1)
   2254  1589       99.7188   438       92.0000      100.0000  1576535    8.70%
   2274  1609       99.6250   393       92.0000      100.0000  1579811    8.70%
   2298  1633       97.3800   206       92.0000      100.0000  1587854    8.70%
   2344  1679       97.2702   182       92.0000      100.0000  1596273    8.70%
   2407  1738       96.5586   183       92.0000      100.0000  1603834    8.70%
   2453  1774       99.6250   350       92.0000      100.0000  1611905    8.70%
   2470  1791       99.4286   330       92.0000      100.0000  1620460    8.70%

Clique cuts applied:  34
Zero-half cuts applied:  35
Lift and project cuts applied:  1

Root node processing (before b&c):
  Real time             =   12.83 sec. (13658.48 ticks)
Sequential b&c:
  Real time             =  586.86 sec. (640160.33 ticks)
                          ------------
Total (root+branch&cut) =  599.69 sec. (653818.81 ticks)
Primal:	92
Dual:	100
Status:	Feasible
Time:	599.66
Sequence:
	19
	12
	0
	6
	1
	7
	19
	6
	10
	6
	4
	3
	4
	17
	13
	17
	4
	3
	4
	0
	6
	14
	10
	12
	6
	0
	4
	16
	12
	1
	8
	1
	9
	16
	4
	9
	10
	4
	0
	12
	20
	4
	1
	7
	1
	4
	0
	23
	6
	10
	12
	1
	8
	19
	12
	0
	4
	18
	24
	17
	7
	17
	4
	13
	1
	6
	5
	4
	16
	4
	5
	4
	0
	14
	1
	7
	1
	6
	3
	22
	1
	7
	1
	8
	19
	9
	10
	4
	18
	24
	17
	9
